Version identifier: 20.1.0.0 | 2020-11-10 | 9bedb6d68
CPXPARAM_Threads                                 1
CPXPARAM_TimeLimit                               7200
CPXPARAM_MIP_Tolerances_MIPGap                   0
Generic callback                                 0x60
1 of 1 MIP starts provided solutions.
MIP start 'm1' defined initial solution with objective 3988.8990.
Tried aggregator 1 time.
Reduced MIP has 1001001 rows, 1001001 columns, and 3001000 nonzeros.
Reduced MIP has 1000 binaries, 0 generals, 0 SOSs, and 0 indicators.
Presolve time = 0.94 sec. (798.63 ticks)
Probing time = 0.13 sec. (125.04 ticks)
Tried aggregator 1 time.
Reduced MIP has 1001001 rows, 1001001 columns, and 3001000 nonzeros.
Reduced MIP has 1000 binaries, 0 generals, 0 SOSs, and 0 indicators.
Presolve time = 0.96 sec. (782.41 ticks)
Probing time = 0.13 sec. (125.04 ticks)
MIP emphasis: balance optimality and feasibility.
MIP search method: dynamic search.
Parallel mode: none, using 1 thread.
Root relaxation solution time = 0.28 sec. (385.39 ticks)

        Nodes                                         Cuts/
   Node  Left     Objective  IInf  Best Integer    Best Bound    ItCnt     Gap

*     0+    0                         3988.8990     5432.0000            36.18%
      0     0     4058.2726    21     3988.8990     5432.0000        0   36.18%
      0     2     4058.2726    21     3988.8990     4058.2725        0    1.74%
Elapsed time = 5091.15 sec. (4631230.82 ticks, tree = 0.01 MB, solutions = 1)

User cuts applied:  3

Root node processing (before b&c):
  Real time             = 5091.08 sec. (4631179.35 ticks)
Sequential b&c:
  Real time             = 2109.27 sec. (1279115.12 ticks)
                          ------------
Total (root+branch&cut) = 7200.34 sec. (5910294.48 ticks)
@Parameters: 
is_S_cut                                true
is_add_all_yinF                         true
is_start_value                          true
is_usercut                              true
is_visualization                        false
uc_only_rootnode                        false

data                                    Qi
fn                                      data/Qi/instance_1000_1000.csv
mode                                    ZLP
solver                                  cplex

p                                       10
r                                       2

EPS                                     1.0e-06
EPS_vio                                 1.0e-04
beta                                    0.10
gap                                     0.00
nodelimit                               Inf
timelimit                               7200.00


@PrintInfos
ItCnt: 68699
Current gap: 1.74 %
Termination Status: TIME_LIMIT
Primal Status: FEASIBLE_POINT
Solve Time: 7200.34 sec
Objective Value: 3988.899007
Number of Nodes:      1

CutInfo: [phase] num / time (sec) 
ZLP             [phase1]     0 / 0.00 [rLC]     3 / 21.76 [rUC]     2 / 9.44 [sLC]     0 / 0.00 [sUC]     1 / 4.91 
OldSubmodular   [phase1]     0 / 0.00 [rLC]     0 / 0.00 [rUC]     0 / 0.00 [sLC]     0 / 0.00 [sUC]     0 / 0.00 
NewSubmodular   [phase1]     0 / 0.00 [rLC]     0 / 0.00 [rUC]     0 / 0.00 [sLC]     0 / 0.00 [sUC]     0 / 0.00 
PMP             [phase1]     0 / 0.00 [rLC]     4 / 16.80 [rUC]     2 / 6.42 [sLC]     0 / 0.00 [sUC]     1 / 3.25 
Separation Round: [phase1] 0  [rLC] 4  [rUC] 2  [sLC] 0  [sUC] 1
Root Best Bound 4058.272539
Root Best Integer: 3988.899007
Best Bound: 4058.272539
Best Integer: 3988.899007

